Maximize
z: 420000 x1 + 300000 x2 + 230000 x3

Subject To
custo: 6700000 x1 + 5000000 x2 + 3500000 x3 <= 150000000
manuten: x1 + 1.333333 x2 + 1.666666 x3 <= 40
pilotos: x1 + x2/3 + x2 + x3 + 2 x3/3 <= 30

Bounds
x1 >= 0
x2 >= 0
x3 >= 0

end